p cnf 50 159
1 2 -3 0
1 -2 3 0
-1 2 3 0
-1 -2 -3 0
4 5 6 0
4 -5 -6 0
-4 5 -6 0
-4 -5 6 0
-7 4 0
-7 1 0
8 2 -6 0
8 -2 6 0
-8 2 6 0
-8 -2 -6 0
9 5 3 0
9 -5 -3 0
-9 5 -3 0
-9 -5 3 0
-10 9 0
-10 8 0
11 5 -3 0
11 -5 3 0
-11 5 3 0
-11 -5 -3 0
12 2 6 0
12 -2 -6 0
-12 2 -6 0
-12 -2 6 0
-13 12 0
-13 11 0
14 5 -6 0
14 -5 6 0
-14 5 6 0
-14 -5 -6 0
15 2 3 0
15 -2 -3 0
-15 2 -3 0
-15 -2 3 0
-16 15 0
-16 14 0
17 -16 0
17 -13 0
17 -10 0
17 -7 0
16 13 10 7 -17 0
18 19 -20 0
18 -19 20 0
-18 19 20 0
-18 -19 -20 0
21 22 23 0
21 -22 -23 0
-21 22 -23 0
-21 -22 23 0
-24 21 0
-24 18 0
25 19 -23 0
25 -19 23 0
-25 19 23 0
-25 -19 -23 0
26 22 20 0
26 -22 -20 0
-26 22 -20 0
-26 -22 20 0
-27 26 0
-27 25 0
28 22 -20 0
28 -22 20 0
-28 22 20 0
-28 -22 -20 0
29 19 23 0
29 -19 -23 0
-29 19 -23 0
-29 -19 23 0
-30 29 0
-30 28 0
31 22 -23 0
31 -22 23 0
-31 22 23 0
-31 -22 -23 0
32 19 20 0
32 -19 -20 0
-32 19 -20 0
-32 -19 20 0
-33 32 0
-33 31 0
-34 35 0
-34 36 0
-37 38 0
-37 39 0
-40 41 0
-40 42 0
-43 44 0
-43 45 0
46 -43 0
46 -40 0
46 -37 0
46 -34 0
46 -33 0
46 -30 0
46 -27 0
46 -24 0
43 40 37 34 33 30 27 24 -46 0
44 47 48 0
44 -47 -48 0
-44 47 -48 0
-44 -47 48 0
45 49 -50 0
45 -49 50 0
-45 49 50 0
-45 -49 -50 0
41 47 50 0
41 -47 -50 0
-41 47 -50 0
-41 -47 50 0
42 49 -48 0
42 -49 48 0
-42 49 48 0
-42 -49 -48 0
38 49 48 0
38 -49 -48 0
-38 49 -48 0
-38 -49 48 0
39 47 -50 0
39 -47 50 0
-39 47 50 0
-39 -47 -50 0
35 49 50 0
35 -49 -50 0
-35 49 -50 0
-35 -49 50 0
36 47 -48 0
36 -47 48 0
-36 47 48 0
-36 -47 -48 0
36 35 0
39 38 0
42 41 0
45 44 0
-47 48 0
47 -48 0
-49 50 0
49 -50 0
-19 49 0
19 -49 0
-22 47 0
22 -47 0
-20 48 0
20 -48 0
-23 50 0
23 -50 0
-2 22 0
2 -22 0
-5 19 0
5 -19 0
-3 20 0
3 -20 0
-6 23 0
6 -23 0
46 17 0
